VRPTWMS/instances/mip/freight/5/N5-C_DV10-C_SV50_F12_7_No_1.lp
\ N5-C_DV10-C_SV50_F12_7

Minimize
  10.82 x_d0_c1 + 10.82 z_d0_c1 + 17.2 x_d0_c2 + 17.2 z_d0_c2 + 14.04 x_d0_c3 + 14.04 z_d0_c3 + 5.83 x_d0_c4 + 5.83 z_d0_c4 + 15.13 x_d0_c5 + 15.13 z_d0_c5 + 20.02 x_c1_c2 + 20.02 x_c2_c1 + 20.02 z_c1_c2 + 20.02 z_c2_c1 + 8.6 x_c1_c3 + 8.6 x_c3_c1 + 8.6 z_c1_c3 + 8.6 z_c3_c1 + 9.85 x_c1_c4 + 9.85 x_c4_c1 + 9.85 z_c1_c4 + 9.85 z_c4_c1 + 25.3 x_c1_c5 + 25.3 x_c5_c1 + 25.3 z_c1_c5 + 25.3 z_c5_c1 + 13.6 x_c2_c3 + 13.6 x_c3_c2 + 13.6 z_c2_c3 + 13.6 z_c3_c2 + 12.08 x_c2_c4 + 12.08 x_c4_c2 + 12.08 z_c2_c4 + 12.08 z_c4_c2 + 27.73 x_c2_c5 + 27.73 x_c5_c2 + 27.73 z_c2_c5 + 27.73 z_c5_c2 + 9.22 x_c3_c4 + 9.22 x_c4_c3 + 9.22 z_c3_c4 + 9.22 z_c4_c3 + 29.02 x_c3_c5 + 29.02 x_c5_c3 + 29.02 z_c3_c5 + 29.02 z_c5_c3 + 20.02 x_c4_c5 + 20.02 x_c5_c4 + 20.02 z_c4_c5 + 20.02 z_c5_c4 + 10.82 x_c1_dN + 10.82 z_c1_dN + 17.2 x_c2_dN + 17.2 z_c2_dN + 14.04 x_c3_dN + 14.04 z_c3_dN + 5.83 x_c4_dN + 5.83 z_c4_dN + 15.13 x_c5_dN + 15.13 z_c5_dN + 1000.0 x_d0_c1 + 1000.0 z_d0_c1 + 1000.0 x_d0_c2 + 1000.0 z_d0_c2 + 1000.0 x_d0_c3 + 1000.0 z_d0_c3 + 1000.0 x_d0_c4 + 1000.0 z_d0_c4 + 1000.0 x_d0_c5 + 1000.0 z_d0_c5
Subject To
  Successor_DV_c1: x_c1_c2 + x_c1_c3 + x_c1_c4 + x_c1_c5 + x_c1_dN = 1
  Successor_DV_c2: x_c2_c1 + x_c2_c3 + x_c2_c4 + x_c2_c5 + x_c2_dN = 1
  Successor_DV_c3: x_c3_c1 + x_c3_c2 + x_c3_c4 + x_c3_c5 + x_c3_dN = 1
  Successor_DV_c4: x_c4_c1 + x_c4_c2 + x_c4_c3 + x_c4_c5 + x_c4_dN = 1
  Successor_DV_c5: x_c5_c1 + x_c5_c2 + x_c5_c3 + x_c5_c4 + x_c5_dN = 1
  Successor_SV_c1: z_c1_c2 + z_c1_c3 + z_c1_c4 + z_c1_c5 + z_c1_dN <= 1
  Successor_SV_c2: z_c2_c1 + z_c2_c3 + z_c2_c4 + z_c2_c5 + z_c2_dN <= 1
  Successor_SV_c3: z_c3_c1 + z_c3_c2 + z_c3_c4 + z_c3_c5 + z_c3_dN <= 1
  Successor_SV_c4: z_c4_c1 + z_c4_c2 + z_c4_c3 + z_c4_c5 + z_c4_dN <= 1
  Successor_SV_c5: z_c5_c1 + z_c5_c2 + z_c5_c3 + z_c5_c4 + z_c5_dN <= 1
  Flow_DV_c1: x_d0_c1 + x_c2_c1 + x_c3_c1 + x_c4_c1 + x_c5_c1 - x_c1_dN - x_c1_c2 - x_c1_c3 - x_c1_c4 - x_c1_c5 = 0
  Flow_DV_c2: x_d0_c2 + x_c1_c2 + x_c3_c2 + x_c4_c2 + x_c5_c2 - x_c2_dN - x_c2_c1 - x_c2_c3 - x_c2_c4 - x_c2_c5 = 0
  Flow_DV_c3: x_d0_c3 + x_c1_c3 + x_c2_c3 + x_c4_c3 + x_c5_c3 - x_c3_dN - x_c3_c1 - x_c3_c2 - x_c3_c4 - x_c3_c5 = 0
  Flow_DV_c4: x_d0_c4 + x_c1_c4 + x_c2_c4 + x_c3_c4 + x_c5_c4 - x_c4_dN - x_c4_c1 - x_c4_c2 - x_c4_c3 - x_c4_c5 = 0
  Flow_DV_c5: x_d0_c5 + x_c1_c5 + x_c2_c5 + x_c3_c5 + x_c4_c5 - x_c5_dN - x_c5_c1 - x_c5_c2 - x_c5_c3 - x_c5_c4 = 0
  Flow_SV_c1: z_d0_c1 + z_c2_c1 + z_c3_c1 + z_c4_c1 + z_c5_c1 - z_c1_dN - z_c1_c2 - z_c1_c3 - z_c1_c4 - z_c1_c5 = 0
  Flow_SV_c2: z_d0_c2 + z_c1_c2 + z_c3_c2 + z_c4_c2 + z_c5_c2 - z_c2_dN - z_c2_c1 - z_c2_c3 - z_c2_c4 - z_c2_c5 = 0
  Flow_SV_c3: z_d0_c3 + z_c1_c3 + z_c2_c3 + z_c4_c3 + z_c5_c3 - z_c3_dN - z_c3_c1 - z_c3_c2 - z_c3_c4 - z_c3_c5 = 0
  Flow_SV_c4: z_d0_c4 + z_c1_c4 + z_c2_c4 + z_c3_c4 + z_c5_c4 - z_c4_dN - z_c4_c1 - z_c4_c2 - z_c4_c3 - z_c4_c5 = 0
  Flow_SV_c5: z_d0_c5 + z_c1_c5 + z_c2_c5 + z_c3_c5 + z_c4_c5 - z_c5_dN - z_c5_c1 - z_c5_c2 - z_c5_c3 - z_c5_c4 = 0
  travelDV_d0_c1: tauD_d0 - tauD_c1 + 102.705 x_d0_c1 <= 100.0
  travelDV_d0_c2: tauD_d0 - tauD_c2 + 104.3 x_d0_c2 <= 100.0
  travelDV_d0_c3: tauD_d0 - tauD_c3 + 103.51 x_d0_c3 <= 100.0
  travelDV_d0_c4: tauD_d0 - tauD_c4 + 101.4575 x_d0_c4 <= 100.0
  travelDV_d0_c5: tauD_d0 - tauD_c5 + 103.7825 x_d0_c5 <= 100.0
  travelDV_c1_c2: tauD_c1 - tauD_c2 + 107.005 x_c1_c2 + 8.0 p_1 <= 100.0
  travelDV_c1_c3: tauD_c1 - tauD_c3 + 104.15 x_c1_c3 + 8.0 p_1 <= 100.0
  travelDV_c1_c4: tauD_c1 - tauD_c4 + 104.4625 x_c1_c4 + 8.0 p_1 <= 100.0
  travelDV_c1_c5: tauD_c1 - tauD_c5 + 108.325 x_c1_c5 + 8.0 p_1 <= 100.0
  travelDV_c2_c1: tauD_c2 - tauD_c1 + 111.005 x_c2_c1 + 8.0 p_2 <= 100.0
  travelDV_c2_c3: tauD_c2 - tauD_c3 + 109.4 x_c2_c3 + 8.0 p_2 <= 100.0
  travelDV_c2_c4: tauD_c2 - tauD_c4 + 109.02 x_c2_c4 + 8.0 p_2 <= 100.0
  travelDV_c2_c5: tauD_c2 - tauD_c5 + 112.9325 x_c2_c5 + 8.0 p_2 <= 100.0
  travelDV_c3_c1: tauD_c3 - tauD_c1 + 107.15 x_c3_c1 + 8.0 p_3 <= 100.0
  travelDV_c3_c2: tauD_c3 - tauD_c2 + 108.4 x_c3_c2 + 8.0 p_3 <= 100.0
  travelDV_c3_c4: tauD_c3 - tauD_c4 + 107.305 x_c3_c4 + 8.0 p_3 <= 100.0
  travelDV_c3_c5: tauD_c3 - tauD_c5 + 112.255 x_c3_c5 + 8.0 p_3 <= 100.0
  travelDV_c4_c1: tauD_c4 - tauD_c1 + 108.4625 x_c4_c1 + 8.0 p_4 <= 100.0
  travelDV_c4_c2: tauD_c4 - tauD_c2 + 109.02 x_c4_c2 + 8.0 p_4 <= 100.0
  travelDV_c4_c3: tauD_c4 - tauD_c3 + 108.305 x_c4_c3 + 8.0 p_4 <= 100.0
  travelDV_c4_c5: tauD_c4 - tauD_c5 + 111.005 x_c4_c5 + 8.0 p_4 <= 100.0
  travelDV_c5_c1: tauD_c5 - tauD_c1 + 112.325 x_c5_c1 + 8.0 p_5 <= 100.0
  travelDV_c5_c2: tauD_c5 - tauD_c2 + 112.9325 x_c5_c2 + 8.0 p_5 <= 100.0
  travelDV_c5_c3: tauD_c5 - tauD_c3 + 113.255 x_c5_c3 + 8.0 p_5 <= 100.0
  travelDV_c5_c4: tauD_c5 - tauD_c4 + 111.005 x_c5_c4 + 8.0 p_5 <= 100.0
  TravelSV_d0_c1: tauS_d0 - tauS_c1 + 100.0 z_d0_c1 <= 97.295
  TravelSV_d0_c2: tauS_d0 - tauS_c2 + 100.0 z_d0_c2 <= 95.7
  TravelSV_d0_c3: tauS_d0 - tauS_c3 + 100.0 z_d0_c3 <= 96.49
  TravelSV_d0_c4: tauS_d0 - tauS_c4 + 100.0 z_d0_c4 <= 98.5425
  TravelSV_d0_c5: tauS_d0 - tauS_c5 + 100.0 z_d0_c5 <= 96.2175
  TravelSV_d0_dN: tauS_d0 - tauS_dN + 100.0 z_d0_dN <= 100.0
  TravelSV_c1_c2: tauS_c1 - tauS_c2 + 100.0 z_c1_c2 <= 86.995
  TravelSV_c1_c3: tauS_c1 - tauS_c3 + 100.0 z_c1_c3 <= 89.85
  TravelSV_c1_c4: tauS_c1 - tauS_c4 + 100.0 z_c1_c4 <= 89.5375
  TravelSV_c1_c5: tauS_c1 - tauS_c5 + 100.0 z_c1_c5 <= 85.675
  TravelSV_c1_dN: tauS_c1 - tauS_dN + 100.0 z_c1_dN <= 89.295
  TravelSV_c2_c1: tauS_c2 - tauS_c1 + 100.0 z_c2_c1 <= 86.995
  TravelSV_c2_c3: tauS_c2 - tauS_c3 + 100.0 z_c2_c3 <= 88.6
  TravelSV_c2_c4: tauS_c2 - tauS_c4 + 100.0 z_c2_c4 <= 88.98
  TravelSV_c2_c5: tauS_c2 - tauS_c5 + 100.0 z_c2_c5 <= 85.0675
  TravelSV_c2_dN: tauS_c2 - tauS_dN + 100.0 z_c2_dN <= 87.7
  TravelSV_c3_c1: tauS_c3 - tauS_c1 + 100.0 z_c3_c1 <= 89.85
  TravelSV_c3_c2: tauS_c3 - tauS_c2 + 100.0 z_c3_c2 <= 88.6
  TravelSV_c3_c4: tauS_c3 - tauS_c4 + 100.0 z_c3_c4 <= 89.695
  TravelSV_c3_c5: tauS_c3 - tauS_c5 + 100.0 z_c3_c5 <= 84.745
  TravelSV_c3_dN: tauS_c3 - tauS_dN + 100.0 z_c3_dN <= 88.49
  TravelSV_c4_c1: tauS_c4 - tauS_c1 + 100.0 z_c4_c1 <= 89.5375
  TravelSV_c4_c2: tauS_c4 - tauS_c2 + 100.0 z_c4_c2 <= 88.98
  TravelSV_c4_c3: tauS_c4 - tauS_c3 + 100.0 z_c4_c3 <= 89.695
  TravelSV_c4_c5: tauS_c4 - tauS_c5 + 100.0 z_c4_c5 <= 86.995
  TravelSV_c4_dN: tauS_c4 - tauS_dN + 100.0 z_c4_dN <= 90.5425
  TravelSV_c5_c1: tauS_c5 - tauS_c1 + 100.0 z_c5_c1 <= 85.675
  TravelSV_c5_c2: tauS_c5 - tauS_c2 + 100.0 z_c5_c2 <= 85.0675
  TravelSV_c5_c3: tauS_c5 - tauS_c3 + 100.0 z_c5_c3 <= 84.745
  TravelSV_c5_c4: tauS_c5 - tauS_c4 + 100.0 z_c5_c4 <= 86.995
  TravelSV_c5_dN: tauS_c5 - tauS_dN + 100.0 z_c5_dN <= 88.2175
  time_window_c1_e: tauD_c1 + 8.0 o_1 >= 10.0
  time_window_c1_l: tauD_c1 + 8.0 o_1 <= 25.0
  time_window_c2_e: tauD_c2 + 8.0 o_2 >= 45.0
  time_window_c2_l: tauD_c2 + 8.0 o_2 <= 60.0
  time_window_c3_e: tauD_c3 + 8.0 o_3 >= 10.0
  time_window_c3_l: tauD_c3 + 8.0 o_3 <= 25.0
  time_window_c4_e: tauD_c4 + 8.0 o_4 >= 45.0
  time_window_c4_l: tauD_c4 + 8.0 o_4 <= 60.0
  time_window_c5_e: tauD_c5 + 8.0 o_5 >= 70.0
  time_window_c5_l: tauD_c5 + 8.0 o_5 <= 85.0
  SyncA_c1_c2_c2: 2.0 o_1 + 100.0 x_c1_c2 - tauD_c2 - 5.005 z_c1_c2 + [ tauS_c2 * z_c1_c2 ] <= 94.995
  SyncA_c1_c2_c3: 2.0 o_1 + 100.0 x_c1_c2 - tauD_c2 - 2.15 z_c1_c3 + [ tauS_c3 * z_c1_c3 ] <= 94.995
  SyncA_c1_c2_c4: 2.0 o_1 + 100.0 x_c1_c2 - tauD_c2 - 2.4625 z_c1_c4 + [ tauS_c4 * z_c1_c4 ] <= 94.995
  SyncA_c1_c2_c5: 2.0 o_1 + 100.0 x_c1_c2 - tauD_c2 - 6.325 z_c1_c5 + [ tauS_c5 * z_c1_c5 ] <= 94.995
  SyncA_c1_c2_dN: 2.0 o_1 + 100.0 x_c1_c2 - tauD_c2 - 2.705 z_c1_dN + [ tauS_dN * z_c1_dN ] <= 94.995
  SyncA_c1_c3_c2: 2.0 o_1 + 100.0 x_c1_c3 - tauD_c3 - 5.005 z_c1_c2 + [ tauS_c2 * z_c1_c2 ] <= 97.85
  SyncA_c1_c3_c3: 2.0 o_1 + 100.0 x_c1_c3 - tauD_c3 - 2.15 z_c1_c3 + [ tauS_c3 * z_c1_c3 ] <= 97.85
  SyncA_c1_c3_c4: 2.0 o_1 + 100.0 x_c1_c3 - tauD_c3 - 2.4625 z_c1_c4 + [ tauS_c4 * z_c1_c4 ] <= 97.85
  SyncA_c1_c3_c5: 2.0 o_1 + 100.0 x_c1_c3 - tauD_c3 - 6.325 z_c1_c5 + [ tauS_c5 * z_c1_c5 ] <= 97.85
  SyncA_c1_c3_dN: 2.0 o_1 + 100.0 x_c1_c3 - tauD_c3 - 2.705 z_c1_dN + [ tauS_dN * z_c1_dN ] <= 97.85
  SyncA_c1_c4_c2: 2.0 o_1 + 100.0 x_c1_c4 - tauD_c4 - 5.005 z_c1_c2 + [ tauS_c2 * z_c1_c2 ] <= 97.5375
  SyncA_c1_c4_c3: 2.0 o_1 + 100.0 x_c1_c4 - tauD_c4 - 2.15 z_c1_c3 + [ tauS_c3 * z_c1_c3 ] <= 97.5375
  SyncA_c1_c4_c4: 2.0 o_1 + 100.0 x_c1_c4 - tauD_c4 - 2.4625 z_c1_c4 + [ tauS_c4 * z_c1_c4 ] <= 97.5375
  SyncA_c1_c4_c5: 2.0 o_1 + 100.0 x_c1_c4 - tauD_c4 - 6.325 z_c1_c5 + [ tauS_c5 * z_c1_c5 ] <= 97.5375
  SyncA_c1_c4_dN: 2.0 o_1 + 100.0 x_c1_c4 - tauD_c4 - 2.705 z_c1_dN + [ tauS_dN * z_c1_dN ] <= 97.5375
  SyncA_c1_c5_c2: 2.0 o_1 + 100.0 x_c1_c5 - tauD_c5 - 5.005 z_c1_c2 + [ tauS_c2 * z_c1_c2 ] <= 93.675
  SyncA_c1_c5_c3: 2.0 o_1 + 100.0 x_c1_c5 - tauD_c5 - 2.15 z_c1_c3 + [ tauS_c3 * z_c1_c3 ] <= 93.675
  SyncA_c1_c5_c4: 2.0 o_1 + 100.0 x_c1_c5 - tauD_c5 - 2.4625 z_c1_c4 + [ tauS_c4 * z_c1_c4 ] <= 93.675
  SyncA_c1_c5_c5: 2.0 o_1 + 100.0 x_c1_c5 - tauD_c5 - 6.325 z_c1_c5 + [ tauS_c5 * z_c1_c5 ] <= 93.675
  SyncA_c1_c5_dN: 2.0 o_1 + 100.0 x_c1_c5 - tauD_c5 - 2.705 z_c1_dN + [ tauS_dN * z_c1_dN ] <= 93.675
  SyncA_c1_dN_c2: 2.0 o_1 + 100.0 x_c1_dN - tauD_dN - 5.005 z_c1_c2 + [ tauS_c2 * z_c1_c2 ] <= 97.295
  SyncA_c1_dN_c3: 2.0 o_1 + 100.0 x_c1_dN - tauD_dN - 2.15 z_c1_c3 + [ tauS_c3 * z_c1_c3 ] <= 97.295
  SyncA_c1_dN_c4: 2.0 o_1 + 100.0 x_c1_dN - tauD_dN - 2.4625 z_c1_c4 + [ tauS_c4 * z_c1_c4 ] <= 97.295
  SyncA_c1_dN_c5: 2.0 o_1 + 100.0 x_c1_dN - tauD_dN - 6.325 z_c1_c5 + [ tauS_c5 * z_c1_c5 ] <= 97.295
  SyncA_c1_dN_dN: 2.0 o_1 + 100.0 x_c1_dN - tauD_dN - 2.705 z_c1_dN + [ tauS_dN * z_c1_dN ] <= 97.295
  SyncA_c2_c1_c1: 6.0 o_2 + 100.0 x_c2_c1 - tauD_c1 - 5.005 z_c2_c1 + [ tauS_c1 * z_c2_c1 ] <= 94.995
  SyncA_c2_c1_c3: 6.0 o_2 + 100.0 x_c2_c1 - tauD_c1 - 3.4 z_c2_c3 + [ tauS_c3 * z_c2_c3 ] <= 94.995
  SyncA_c2_c1_c4: 6.0 o_2 + 100.0 x_c2_c1 - tauD_c1 - 3.02 z_c2_c4 + [ tauS_c4 * z_c2_c4 ] <= 94.995
  SyncA_c2_c1_c5: 6.0 o_2 + 100.0 x_c2_c1 - tauD_c1 - 6.9325 z_c2_c5 + [ tauS_c5 * z_c2_c5 ] <= 94.995
  SyncA_c2_c1_dN: 6.0 o_2 + 100.0 x_c2_c1 - tauD_c1 - 4.3 z_c2_dN + [ tauS_dN * z_c2_dN ] <= 94.995
  SyncA_c2_c3_c1: 6.0 o_2 + 100.0 x_c2_c3 - tauD_c3 - 5.005 z_c2_c1 + [ tauS_c1 * z_c2_c1 ] <= 96.6
  SyncA_c2_c3_c3: 6.0 o_2 + 100.0 x_c2_c3 - tauD_c3 - 3.4 z_c2_c3 + [ tauS_c3 * z_c2_c3 ] <= 96.6
  SyncA_c2_c3_c4: 6.0 o_2 + 100.0 x_c2_c3 - tauD_c3 - 3.02 z_c2_c4 + [ tauS_c4 * z_c2_c4 ] <= 96.6
  SyncA_c2_c3_c5: 6.0 o_2 + 100.0 x_c2_c3 - tauD_c3 - 6.9325 z_c2_c5 + [ tauS_c5 * z_c2_c5 ] <= 96.6
  SyncA_c2_c3_dN: 6.0 o_2 + 100.0 x_c2_c3 - tauD_c3 - 4.3 z_c2_dN + [ tauS_dN * z_c2_dN ] <= 96.6
  SyncA_c2_c4_c1: 6.0 o_2 + 100.0 x_c2_c4 - tauD_c4 - 5.005 z_c2_c1 + [ tauS_c1 * z_c2_c1 ] <= 96.98
  SyncA_c2_c4_c3: 6.0 o_2 + 100.0 x_c2_c4 - tauD_c4 - 3.4 z_c2_c3 + [ tauS_c3 * z_c2_c3 ] <= 96.98
  SyncA_c2_c4_c4: 6.0 o_2 + 100.0 x_c2_c4 - tauD_c4 - 3.02 z_c2_c4 + [ tauS_c4 * z_c2_c4 ] <= 96.98
  SyncA_c2_c4_c5: 6.0 o_2 + 100.0 x_c2_c4 - tauD_c4 - 6.9325 z_c2_c5 + [ tauS_c5 * z_c2_c5 ] <= 96.98
  SyncA_c2_c4_dN: 6.0 o_2 + 100.0 x_c2_c4 - tauD_c4 - 4.3 z_c2_dN + [ tauS_dN * z_c2_dN ] <= 96.98
  SyncA_c2_c5_c1: 6.0 o_2 + 100.0 x_c2_c5 - tauD_c5 - 5.005 z_c2_c1 + [ tauS_c1 * z_c2_c1 ] <= 93.0675
  SyncA_c2_c5_c3: 6.0 o_2 + 100.0 x_c2_c5 - tauD_c5 - 3.4 z_c2_c3 + [ tauS_c3 * z_c2_c3 ] <= 93.0675
  SyncA_c2_c5_c4: 6.0 o_2 + 100.0 x_c2_c5 - tauD_c5 - 3.02 z_c2_c4 + [ tauS_c4 * z_c2_c4 ] <= 93.0675
  SyncA_c2_c5_c5: 6.0 o_2 + 100.0 x_c2_c5 - tauD_c5 - 6.9325 z_c2_c5 + [ tauS_c5 * z_c2_c5 ] <= 93.0675
  SyncA_c2_c5_dN: 6.0 o_2 + 100.0 x_c2_c5 - tauD_c5 - 4.3 z_c2_dN + [ tauS_dN * z_c2_dN ] <= 93.0675
  SyncA_c2_dN_c1: 6.0 o_2 + 100.0 x_c2_dN - tauD_dN - 5.005 z_c2_c1 + [ tauS_c1 * z_c2_c1 ] <= 95.7
  SyncA_c2_dN_c3: 6.0 o_2 + 100.0 x_c2_dN - tauD_dN - 3.4 z_c2_c3 + [ tauS_c3 * z_c2_c3 ] <= 95.7
  SyncA_c2_dN_c4: 6.0 o_2 + 100.0 x_c2_dN - tauD_dN - 3.02 z_c2_c4 + [ tauS_c4 * z_c2_c4 ] <= 95.7
  SyncA_c2_dN_c5: 6.0 o_2 + 100.0 x_c2_dN - tauD_dN - 6.9325 z_c2_c5 + [ tauS_c5 * z_c2_c5 ] <= 95.7
  SyncA_c2_dN_dN: 6.0 o_2 + 100.0 x_c2_dN - tauD_dN - 4.3 z_c2_dN + [ tauS_dN * z_c2_dN ] <= 95.7
  SyncA_c3_c1_c1: 5.0 o_3 + 100.0 x_c3_c1 - tauD_c1 - 2.15 z_c3_c1 + [ tauS_c1 * z_c3_c1 ] <= 97.85
  SyncA_c3_c1_c2: 5.0 o_3 + 100.0 x_c3_c1 - tauD_c1 - 3.4 z_c3_c2 + [ tauS_c2 * z_c3_c2 ] <= 97.85
  SyncA_c3_c1_c4: 5.0 o_3 + 100.0 x_c3_c1 - tauD_c1 - 2.305 z_c3_c4 + [ tauS_c4 * z_c3_c4 ] <= 97.85
  SyncA_c3_c1_c5: 5.0 o_3 + 100.0 x_c3_c1 - tauD_c1 - 7.255 z_c3_c5 + [ tauS_c5 * z_c3_c5 ] <= 97.85
  SyncA_c3_c1_dN: 5.0 o_3 + 100.0 x_c3_c1 - tauD_c1 - 3.51 z_c3_dN + [ tauS_dN * z_c3_dN ] <= 97.85
  SyncA_c3_c2_c1: 5.0 o_3 + 100.0 x_c3_c2 - tauD_c2 - 2.15 z_c3_c1 + [ tauS_c1 * z_c3_c1 ] <= 96.6
  SyncA_c3_c2_c2: 5.0 o_3 + 100.0 x_c3_c2 - tauD_c2 - 3.4 z_c3_c2 + [ tauS_c2 * z_c3_c2 ] <= 96.6
  SyncA_c3_c2_c4: 5.0 o_3 + 100.0 x_c3_c2 - tauD_c2 - 2.305 z_c3_c4 + [ tauS_c4 * z_c3_c4 ] <= 96.6
  SyncA_c3_c2_c5: 5.0 o_3 + 100.0 x_c3_c2 - tauD_c2 - 7.255 z_c3_c5 + [ tauS_c5 * z_c3_c5 ] <= 96.6
  SyncA_c3_c2_dN: 5.0 o_3 + 100.0 x_c3_c2 - tauD_c2 - 3.51 z_c3_dN + [ tauS_dN * z_c3_dN ] <= 96.6
  SyncA_c3_c4_c1: 5.0 o_3 + 100.0 x_c3_c4 - tauD_c4 - 2.15 z_c3_c1 + [ tauS_c1 * z_c3_c1 ] <= 97.695
  SyncA_c3_c4_c2: 5.0 o_3 + 100.0 x_c3_c4 - tauD_c4 - 3.4 z_c3_c2 + [ tauS_c2 * z_c3_c2 ] <= 97.695
  SyncA_c3_c4_c4: 5.0 o_3 + 100.0 x_c3_c4 - tauD_c4 - 2.305 z_c3_c4 + [ tauS_c4 * z_c3_c4 ] <= 97.695
  SyncA_c3_c4_c5: 5.0 o_3 + 100.0 x_c3_c4 - tauD_c4 - 7.255 z_c3_c5 + [ tauS_c5 * z_c3_c5 ] <= 97.695
  SyncA_c3_c4_dN: 5.0 o_3 + 100.0 x_c3_c4 - tauD_c4 - 3.51 z_c3_dN + [ tauS_dN * z_c3_dN ] <= 97.695
  SyncA_c3_c5_c1: 5.0 o_3 + 100.0 x_c3_c5 - tauD_c5 - 2.15 z_c3_c1 + [ tauS_c1 * z_c3_c1 ] <= 92.745
  SyncA_c3_c5_c2: 5.0 o_3 + 100.0 x_c3_c5 - tauD_c5 - 3.4 z_c3_c2 + [ tauS_c2 * z_c3_c2 ] <= 92.745
  SyncA_c3_c5_c4: 5.0 o_3 + 100.0 x_c3_c5 - tauD_c5 - 2.305 z_c3_c4 + [ tauS_c4 * z_c3_c4 ] <= 92.745
  SyncA_c3_c5_c5: 5.0 o_3 + 100.0 x_c3_c5 - tauD_c5 - 7.255 z_c3_c5 + [ tauS_c5 * z_c3_c5 ] <= 92.745
  SyncA_c3_c5_dN: 5.0 o_3 + 100.0 x_c3_c5 - tauD_c5 - 3.51 z_c3_dN + [ tauS_dN * z_c3_dN ] <= 92.745
  SyncA_c3_dN_c1: 5.0 o_3 + 100.0 x_c3_dN - tauD_dN - 2.15 z_c3_c1 + [ tauS_c1 * z_c3_c1 ] <= 96.49
  SyncA_c3_dN_c2: 5.0 o_3 + 100.0 x_c3_dN - tauD_dN - 3.4 z_c3_c2 + [ tauS_c2 * z_c3_c2 ] <= 96.49
  SyncA_c3_dN_c4: 5.0 o_3 + 100.0 x_c3_dN - tauD_dN - 2.305 z_c3_c4 + [ tauS_c4 * z_c3_c4 ] <= 96.49
  SyncA_c3_dN_c5: 5.0 o_3 + 100.0 x_c3_dN - tauD_dN - 7.255 z_c3_c5 + [ tauS_c5 * z_c3_c5 ] <= 96.49
  SyncA_c3_dN_dN: 5.0 o_3 + 100.0 x_c3_dN - tauD_dN - 3.51 z_c3_dN + [ tauS_dN * z_c3_dN ] <= 96.49
  SyncA_c4_c1_c1: 6.0 o_4 + 100.0 x_c4_c1 - tauD_c1 - 2.4625 z_c4_c1 + [ tauS_c1 * z_c4_c1 ] <= 97.5375
  SyncA_c4_c1_c2: 6.0 o_4 + 100.0 x_c4_c1 - tauD_c1 - 3.02 z_c4_c2 + [ tauS_c2 * z_c4_c2 ] <= 97.5375
  SyncA_c4_c1_c3: 6.0 o_4 + 100.0 x_c4_c1 - tauD_c1 - 2.305 z_c4_c3 + [ tauS_c3 * z_c4_c3 ] <= 97.5375
  SyncA_c4_c1_c5: 6.0 o_4 + 100.0 x_c4_c1 - tauD_c1 - 5.005 z_c4_c5 + [ tauS_c5 * z_c4_c5 ] <= 97.5375
  SyncA_c4_c1_dN: 6.0 o_4 + 100.0 x_c4_c1 - tauD_c1 - 1.4575 z_c4_dN + [ tauS_dN * z_c4_dN ] <= 97.5375
  SyncA_c4_c2_c1: 6.0 o_4 + 100.0 x_c4_c2 - tauD_c2 - 2.4625 z_c4_c1 + [ tauS_c1 * z_c4_c1 ] <= 96.98
  SyncA_c4_c2_c2: 6.0 o_4 + 100.0 x_c4_c2 - tauD_c2 - 3.02 z_c4_c2 + [ tauS_c2 * z_c4_c2 ] <= 96.98
  SyncA_c4_c2_c3: 6.0 o_4 + 100.0 x_c4_c2 - tauD_c2 - 2.305 z_c4_c3 + [ tauS_c3 * z_c4_c3 ] <= 96.98
  SyncA_c4_c2_c5: 6.0 o_4 + 100.0 x_c4_c2 - tauD_c2 - 5.005 z_c4_c5 + [ tauS_c5 * z_c4_c5 ] <= 96.98
  SyncA_c4_c2_dN: 6.0 o_4 + 100.0 x_c4_c2 - tauD_c2 - 1.4575 z_c4_dN + [ tauS_dN * z_c4_dN ] <= 96.98
  SyncA_c4_c3_c1: 6.0 o_4 + 100.0 x_c4_c3 - tauD_c3 - 2.4625 z_c4_c1 + [ tauS_c1 * z_c4_c1 ] <= 97.695
  SyncA_c4_c3_c2: 6.0 o_4 + 100.0 x_c4_c3 - tauD_c3 - 3.02 z_c4_c2 + [ tauS_c2 * z_c4_c2 ] <= 97.695
  SyncA_c4_c3_c3: 6.0 o_4 + 100.0 x_c4_c3 - tauD_c3 - 2.305 z_c4_c3 + [ tauS_c3 * z_c4_c3 ] <= 97.695
  SyncA_c4_c3_c5: 6.0 o_4 + 100.0 x_c4_c3 - tauD_c3 - 5.005 z_c4_c5 + [ tauS_c5 * z_c4_c5 ] <= 97.695
  SyncA_c4_c3_dN: 6.0 o_4 + 100.0 x_c4_c3 - tauD_c3 - 1.4575 z_c4_dN + [ tauS_dN * z_c4_dN ] <= 97.695
  SyncA_c4_c5_c1: 6.0 o_4 + 100.0 x_c4_c5 - tauD_c5 - 2.4625 z_c4_c1 + [ tauS_c1 * z_c4_c1 ] <= 94.995
  SyncA_c4_c5_c2: 6.0 o_4 + 100.0 x_c4_c5 - tauD_c5 - 3.02 z_c4_c2 + [ tauS_c2 * z_c4_c2 ] <= 94.995
  SyncA_c4_c5_c3: 6.0 o_4 + 100.0 x_c4_c5 - tauD_c5 - 2.305 z_c4_c3 + [ tauS_c3 * z_c4_c3 ] <= 94.995
  SyncA_c4_c5_c5: 6.0 o_4 + 100.0 x_c4_c5 - tauD_c5 - 5.005 z_c4_c5 + [ tauS_c5 * z_c4_c5 ] <= 94.995
  SyncA_c4_c5_dN: 6.0 o_4 + 100.0 x_c4_c5 - tauD_c5 - 1.4575 z_c4_dN + [ tauS_dN * z_c4_dN ] <= 94.995
  SyncA_c4_dN_c1: 6.0 o_4 + 100.0 x_c4_dN - tauD_dN - 2.4625 z_c4_c1 + [ tauS_c1 * z_c4_c1 ] <= 98.5425
  SyncA_c4_dN_c2: 6.0 o_4 + 100.0 x_c4_dN - tauD_dN - 3.02 z_c4_c2 + [ tauS_c2 * z_c4_c2 ] <= 98.5425
  SyncA_c4_dN_c3: 6.0 o_4 + 100.0 x_c4_dN - tauD_dN - 2.305 z_c4_c3 + [ tauS_c3 * z_c4_c3 ] <= 98.5425
  SyncA_c4_dN_c5: 6.0 o_4 + 100.0 x_c4_dN - tauD_dN - 5.005 z_c4_c5 + [ tauS_c5 * z_c4_c5 ] <= 98.5425
  SyncA_c4_dN_dN: 6.0 o_4 + 100.0 x_c4_dN - tauD_dN - 1.4575 z_c4_dN + [ tauS_dN * z_c4_dN ] <= 98.5425
  SyncA_c5_c1_c1: 6.0 o_5 + 100.0 x_c5_c1 - tauD_c1 - 6.325 z_c5_c1 + [ tauS_c1 * z_c5_c1 ] <= 93.675
  SyncA_c5_c1_c2: 6.0 o_5 + 100.0 x_c5_c1 - tauD_c1 - 6.9325 z_c5_c2 + [ tauS_c2 * z_c5_c2 ] <= 93.675
  SyncA_c5_c1_c3: 6.0 o_5 + 100.0 x_c5_c1 - tauD_c1 - 7.255 z_c5_c3 + [ tauS_c3 * z_c5_c3 ] <= 93.675
  SyncA_c5_c1_c4: 6.0 o_5 + 100.0 x_c5_c1 - tauD_c1 - 5.005 z_c5_c4 + [ tauS_c4 * z_c5_c4 ] <= 93.675
  SyncA_c5_c1_dN: 6.0 o_5 + 100.0 x_c5_c1 - tauD_c1 - 3.7825 z_c5_dN + [ tauS_dN * z_c5_dN ] <= 93.675
  SyncA_c5_c2_c1: 6.0 o_5 + 100.0 x_c5_c2 - tauD_c2 - 6.325 z_c5_c1 + [ tauS_c1 * z_c5_c1 ] <= 93.0675
  SyncA_c5_c2_c2: 6.0 o_5 + 100.0 x_c5_c2 - tauD_c2 - 6.9325 z_c5_c2 + [ tauS_c2 * z_c5_c2 ] <= 93.0675
  SyncA_c5_c2_c3: 6.0 o_5 + 100.0 x_c5_c2 - tauD_c2 - 7.255 z_c5_c3 + [ tauS_c3 * z_c5_c3 ] <= 93.0675
  SyncA_c5_c2_c4: 6.0 o_5 + 100.0 x_c5_c2 - tauD_c2 - 5.005 z_c5_c4 + [ tauS_c4 * z_c5_c4 ] <= 93.0675
  SyncA_c5_c2_dN: 6.0 o_5 + 100.0 x_c5_c2 - tauD_c2 - 3.7825 z_c5_dN + [ tauS_dN * z_c5_dN ] <= 93.0675
  SyncA_c5_c3_c1: 6.0 o_5 + 100.0 x_c5_c3 - tauD_c3 - 6.325 z_c5_c1 + [ tauS_c1 * z_c5_c1 ] <= 92.745
  SyncA_c5_c3_c2: 6.0 o_5 + 100.0 x_c5_c3 - tauD_c3 - 6.9325 z_c5_c2 + [ tauS_c2 * z_c5_c2 ] <= 92.745
  SyncA_c5_c3_c3: 6.0 o_5 + 100.0 x_c5_c3 - tauD_c3 - 7.255 z_c5_c3 + [ tauS_c3 * z_c5_c3 ] <= 92.745
  SyncA_c5_c3_c4: 6.0 o_5 + 100.0 x_c5_c3 - tauD_c3 - 5.005 z_c5_c4 + [ tauS_c4 * z_c5_c4 ] <= 92.745
  SyncA_c5_c3_dN: 6.0 o_5 + 100.0 x_c5_c3 - tauD_c3 - 3.7825 z_c5_dN + [ tauS_dN * z_c5_dN ] <= 92.745
  SyncA_c5_c4_c1: 6.0 o_5 + 100.0 x_c5_c4 - tauD_c4 - 6.325 z_c5_c1 + [ tauS_c1 * z_c5_c1 ] <= 94.995
  SyncA_c5_c4_c2: 6.0 o_5 + 100.0 x_c5_c4 - tauD_c4 - 6.9325 z_c5_c2 + [ tauS_c2 * z_c5_c2 ] <= 94.995
  SyncA_c5_c4_c3: 6.0 o_5 + 100.0 x_c5_c4 - tauD_c4 - 7.255 z_c5_c3 + [ tauS_c3 * z_c5_c3 ] <= 94.995
  SyncA_c5_c4_c4: 6.0 o_5 + 100.0 x_c5_c4 - tauD_c4 - 5.005 z_c5_c4 + [ tauS_c4 * z_c5_c4 ] <= 94.995
  SyncA_c5_c4_dN: 6.0 o_5 + 100.0 x_c5_c4 - tauD_c4 - 3.7825 z_c5_dN + [ tauS_dN * z_c5_dN ] <= 94.995
  SyncA_c5_dN_c1: 6.0 o_5 + 100.0 x_c5_dN - tauD_dN - 6.325 z_c5_c1 + [ tauS_c1 * z_c5_c1 ] <= 96.2175
  SyncA_c5_dN_c2: 6.0 o_5 + 100.0 x_c5_dN - tauD_dN - 6.9325 z_c5_c2 + [ tauS_c2 * z_c5_c2 ] <= 96.2175
  SyncA_c5_dN_c3: 6.0 o_5 + 100.0 x_c5_dN - tauD_dN - 7.255 z_c5_c3 + [ tauS_c3 * z_c5_c3 ] <= 96.2175
  SyncA_c5_dN_c4: 6.0 o_5 + 100.0 x_c5_dN - tauD_dN - 5.005 z_c5_c4 + [ tauS_c4 * z_c5_c4 ] <= 96.2175
  SyncA_c5_dN_dN: 6.0 o_5 + 100.0 x_c5_dN - tauD_dN - 3.7825 z_c5_dN + [ tauS_dN * z_c5_dN ] <= 96.2175
  SVFirst_c1_c2: tauS_c2 - tauD_c1 + 2.0 o_1 - 100.0 z_c1_c2 >= -84.995
  SVFirst_c1_c3: tauS_c3 - tauD_c1 + 2.0 o_1 - 100.0 z_c1_c3 >= -87.85
  SVFirst_c1_c4: tauS_c4 - tauD_c1 + 2.0 o_1 - 100.0 z_c1_c4 >= -87.5375
  SVFirst_c1_c5: tauS_c5 - tauD_c1 + 2.0 o_1 - 100.0 z_c1_c5 >= -83.675
  SVFirst_c1_dN:  tauS_dN - tauD_c1 + 2.0 o_1 - 100.0 z_c1_dN >= -87.295
  SVFirst_c2_c1: tauS_c1 - tauD_c2 + 6.0 o_2 - 100.0 z_c2_c1 >= -80.995
  SVFirst_c2_c3: tauS_c3 - tauD_c2 + 6.0 o_2 - 100.0 z_c2_c3 >= -82.6
  SVFirst_c2_c4: tauS_c4 - tauD_c2 + 6.0 o_2 - 100.0 z_c2_c4 >= -82.98
  SVFirst_c2_c5: tauS_c5 - tauD_c2 + 6.0 o_2 - 100.0 z_c2_c5 >= -79.0675
  SVFirst_c2_dN:  tauS_dN - tauD_c2 + 6.0 o_2 - 100.0 z_c2_dN >= -81.7
  SVFirst_c3_c1: tauS_c1 - tauD_c3 + 5.0 o_3 - 100.0 z_c3_c1 >= -84.85
  SVFirst_c3_c2: tauS_c2 - tauD_c3 + 5.0 o_3 - 100.0 z_c3_c2 >= -83.6
  SVFirst_c3_c4: tauS_c4 - tauD_c3 + 5.0 o_3 - 100.0 z_c3_c4 >= -84.695
  SVFirst_c3_c5: tauS_c5 - tauD_c3 + 5.0 o_3 - 100.0 z_c3_c5 >= -79.745
  SVFirst_c3_dN:  tauS_dN - tauD_c3 + 5.0 o_3 - 100.0 z_c3_dN >= -83.49
  SVFirst_c4_c1: tauS_c1 - tauD_c4 + 6.0 o_4 - 100.0 z_c4_c1 >= -83.5375
  SVFirst_c4_c2: tauS_c2 - tauD_c4 + 6.0 o_4 - 100.0 z_c4_c2 >= -82.98
  SVFirst_c4_c3: tauS_c3 - tauD_c4 + 6.0 o_4 - 100.0 z_c4_c3 >= -83.695
  SVFirst_c4_c5: tauS_c5 - tauD_c4 + 6.0 o_4 - 100.0 z_c4_c5 >= -80.995
  SVFirst_c4_dN:  tauS_dN - tauD_c4 + 6.0 o_4 - 100.0 z_c4_dN >= -84.5425
  SVFirst_c5_c1: tauS_c1 - tauD_c5 + 6.0 o_5 - 100.0 z_c5_c1 >= -79.675
  SVFirst_c5_c2: tauS_c2 - tauD_c5 + 6.0 o_5 - 100.0 z_c5_c2 >= -79.0675
  SVFirst_c5_c3: tauS_c3 - tauD_c5 + 6.0 o_5 - 100.0 z_c5_c3 >= -78.745
  SVFirst_c5_c4: tauS_c4 - tauD_c5 + 6.0 o_5 - 100.0 z_c5_c4 >= -80.995
  SVFirst_c5_dN:  tauS_dN - tauD_c5 + 6.0 o_5 - 100.0 z_c5_dN >= -82.2175
  Precedence_Swap_c1:  p_1 - z_d0_c1 - z_c2_c1 - z_c3_c1 - z_c4_c1 - z_c5_c1 = 0
  Precedence_Swap_c2:  p_2 - z_d0_c2 - z_c1_c2 - z_c3_c2 - z_c4_c2 - z_c5_c2 = 0
  Precedence_Swap_c3:  p_3 - z_d0_c3 - z_c1_c3 - z_c2_c3 - z_c4_c3 - z_c5_c3 = 0
  Precedence_Swap_c4:  p_4 - z_d0_c4 - z_c1_c4 - z_c2_c4 - z_c3_c4 - z_c5_c4 = 0
  Precedence_Swap_c5:  p_5 - z_d0_c5 - z_c1_c5 - z_c2_c5 - z_c3_c5 - z_c4_c5 = 0
  Order_c1:  o_1 - p_1 <= 0
  Order_c2:  o_2 - p_2 <= 0
  Order_c3:  o_3 - p_3 <= 0
  Order_c4:  o_4 - p_4 <= 0
  Order_c5:  o_5 - p_5 <= 0
  WorkingTimeS_c1:  tauS_c1 <= 89.295
  WorkingTimeS_c2:  tauS_c2 <= 87.7
  WorkingTimeS_c3:  tauS_c3 <= 88.49
  WorkingTimeS_c4:  tauS_c4 <= 90.5425
  WorkingTimeS_c5:  tauS_c5 <= 88.2175
  FreightDV_c1_c2:  k_c2 - kDash_c1 - 10.0 p_1 + 10.0 x_c1_c2 + [ kDash_c1 * p_1 - kDash_c1 * o_1 + 10.0 p_1 * o_1 ] <= 10.0
  FreightDV_c1_c3:  k_c3 - kDash_c1 - 10.0 p_1 + 10.0 x_c1_c3 + [ kDash_c1 * p_1 - kDash_c1 * o_1 + 10.0 p_1 * o_1 ] <= 10.0
  FreightDV_c1_c4:  k_c4 - kDash_c1 - 10.0 p_1 + 10.0 x_c1_c4 + [ kDash_c1 * p_1 - kDash_c1 * o_1 + 10.0 p_1 * o_1 ] <= 10.0
  FreightDV_c1_c5:  k_c5 - kDash_c1 - 10.0 p_1 + 10.0 x_c1_c5 + [ kDash_c1 * p_1 - kDash_c1 * o_1 + 10.0 p_1 * o_1 ] <= 10.0
  FreightDV_c1_dN:  k_dN - kDash_c1 - 10.0 p_1 + 10.0 x_c1_dN + [ kDash_c1 * p_1 - kDash_c1 * o_1 + 10.0 p_1 * o_1 ] <= 10.0
  FreightDV_c1:  kDash_c1 - k_c1 - 10.0 o_1 + [ k_c1 * o_1 ] <= -5.0
  FreightDV_c2_c1:  k_c1 - kDash_c2 - 10.0 p_2 + 10.0 x_c2_c1 + [ kDash_c2 * p_2 - kDash_c2 * o_2 + 10.0 p_2 * o_2 ] <= 10.0
  FreightDV_c2_c3:  k_c3 - kDash_c2 - 10.0 p_2 + 10.0 x_c2_c3 + [ kDash_c2 * p_2 - kDash_c2 * o_2 + 10.0 p_2 * o_2 ] <= 10.0
  FreightDV_c2_c4:  k_c4 - kDash_c2 - 10.0 p_2 + 10.0 x_c2_c4 + [ kDash_c2 * p_2 - kDash_c2 * o_2 + 10.0 p_2 * o_2 ] <= 10.0
  FreightDV_c2_c5:  k_c5 - kDash_c2 - 10.0 p_2 + 10.0 x_c2_c5 + [ kDash_c2 * p_2 - kDash_c2 * o_2 + 10.0 p_2 * o_2 ] <= 10.0
  FreightDV_c2_dN:  k_dN - kDash_c2 - 10.0 p_2 + 10.0 x_c2_dN + [ kDash_c2 * p_2 - kDash_c2 * o_2 + 10.0 p_2 * o_2 ] <= 10.0
  FreightDV_c2:  kDash_c2 - k_c2 - 10.0 o_2 + [ k_c2 * o_2 ] <= -6.0
  FreightDV_c3_c1:  k_c1 - kDash_c3 - 10.0 p_3 + 10.0 x_c3_c1 + [ kDash_c3 * p_3 - kDash_c3 * o_3 + 10.0 p_3 * o_3 ] <= 10.0
  FreightDV_c3_c2:  k_c2 - kDash_c3 - 10.0 p_3 + 10.0 x_c3_c2 + [ kDash_c3 * p_3 - kDash_c3 * o_3 + 10.0 p_3 * o_3 ] <= 10.0
  FreightDV_c3_c4:  k_c4 - kDash_c3 - 10.0 p_3 + 10.0 x_c3_c4 + [ kDash_c3 * p_3 - kDash_c3 * o_3 + 10.0 p_3 * o_3 ] <= 10.0
  FreightDV_c3_c5:  k_c5 - kDash_c3 - 10.0 p_3 + 10.0 x_c3_c5 + [ kDash_c3 * p_3 - kDash_c3 * o_3 + 10.0 p_3 * o_3 ] <= 10.0
  FreightDV_c3_dN:  k_dN - kDash_c3 - 10.0 p_3 + 10.0 x_c3_dN + [ kDash_c3 * p_3 - kDash_c3 * o_3 + 10.0 p_3 * o_3 ] <= 10.0
  FreightDV_c3:  kDash_c3 - k_c3 - 10.0 o_3 + [ k_c3 * o_3 ] <= -5.0
  FreightDV_c4_c1:  k_c1 - kDash_c4 - 10.0 p_4 + 10.0 x_c4_c1 + [ kDash_c4 * p_4 - kDash_c4 * o_4 + 10.0 p_4 * o_4 ] <= 10.0
  FreightDV_c4_c2:  k_c2 - kDash_c4 - 10.0 p_4 + 10.0 x_c4_c2 + [ kDash_c4 * p_4 - kDash_c4 * o_4 + 10.0 p_4 * o_4 ] <= 10.0
  FreightDV_c4_c3:  k_c3 - kDash_c4 - 10.0 p_4 + 10.0 x_c4_c3 + [ kDash_c4 * p_4 - kDash_c4 * o_4 + 10.0 p_4 * o_4 ] <= 10.0
  FreightDV_c4_c5:  k_c5 - kDash_c4 - 10.0 p_4 + 10.0 x_c4_c5 + [ kDash_c4 * p_4 - kDash_c4 * o_4 + 10.0 p_4 * o_4 ] <= 10.0
  FreightDV_c4_dN:  k_dN - kDash_c4 - 10.0 p_4 + 10.0 x_c4_dN + [ kDash_c4 * p_4 - kDash_c4 * o_4 + 10.0 p_4 * o_4 ] <= 10.0
  FreightDV_c4:  kDash_c4 - k_c4 - 10.0 o_4 + [ k_c4 * o_4 ] <= -4.0
  FreightDV_c5_c1:  k_c1 - kDash_c5 - 10.0 p_5 + 10.0 x_c5_c1 + [ kDash_c5 * p_5 - kDash_c5 * o_5 + 10.0 p_5 * o_5 ] <= 10.0
  FreightDV_c5_c2:  k_c2 - kDash_c5 - 10.0 p_5 + 10.0 x_c5_c2 + [ kDash_c5 * p_5 - kDash_c5 * o_5 + 10.0 p_5 * o_5 ] <= 10.0
  FreightDV_c5_c3:  k_c3 - kDash_c5 - 10.0 p_5 + 10.0 x_c5_c3 + [ kDash_c5 * p_5 - kDash_c5 * o_5 + 10.0 p_5 * o_5 ] <= 10.0
  FreightDV_c5_c4:  k_c4 - kDash_c5 - 10.0 p_5 + 10.0 x_c5_c4 + [ kDash_c5 * p_5 - kDash_c5 * o_5 + 10.0 p_5 * o_5 ] <= 10.0
  FreightDV_c5_dN:  k_dN - kDash_c5 - 10.0 p_5 + 10.0 x_c5_dN + [ kDash_c5 * p_5 - kDash_c5 * o_5 + 10.0 p_5 * o_5 ] <= 10.0
  FreightDV_c5:  kDash_c5 - k_c5 - 10.0 o_5 + [ k_c5 * o_5 ] <= -1.0
  FreightSV_c1_c2:  pi_c2 - pi_c1 - kDash_c1 + 20.0 z_c1_c2 + [ kDash_c1 * o_1 - k_c1 * o_1 ] <= 10.0
  FreightSV_c1_c3:  pi_c3 - pi_c1 - kDash_c1 + 20.0 z_c1_c3 + [ kDash_c1 * o_1 - k_c1 * o_1 ] <= 10.0
  FreightSV_c1_c4:  pi_c4 - pi_c1 - kDash_c1 + 20.0 z_c1_c4 + [ kDash_c1 * o_1 - k_c1 * o_1 ] <= 10.0
  FreightSV_c1_c5:  pi_c5 - pi_c1 - kDash_c1 + 20.0 z_c1_c5 + [ kDash_c1 * o_1 - k_c1 * o_1 ] <= 10.0
  FreightSV_c1_dN:  pi_dN - pi_c1 - kDash_c1 + 20.0 z_c1_dN + [ kDash_c1 * o_1 - k_c1 * o_1 ] <= 10.0
  FreightSV_c2_c1:  pi_c1 - pi_c2 - kDash_c2 + 20.0 z_c2_c1 + [ kDash_c2 * o_2 - k_c2 * o_2 ] <= 10.0
  FreightSV_c2_c3:  pi_c3 - pi_c2 - kDash_c2 + 20.0 z_c2_c3 + [ kDash_c2 * o_2 - k_c2 * o_2 ] <= 10.0
  FreightSV_c2_c4:  pi_c4 - pi_c2 - kDash_c2 + 20.0 z_c2_c4 + [ kDash_c2 * o_2 - k_c2 * o_2 ] <= 10.0
  FreightSV_c2_c5:  pi_c5 - pi_c2 - kDash_c2 + 20.0 z_c2_c5 + [ kDash_c2 * o_2 - k_c2 * o_2 ] <= 10.0
  FreightSV_c2_dN:  pi_dN - pi_c2 - kDash_c2 + 20.0 z_c2_dN + [ kDash_c2 * o_2 - k_c2 * o_2 ] <= 10.0
  FreightSV_c3_c1:  pi_c1 - pi_c3 - kDash_c3 + 20.0 z_c3_c1 + [ kDash_c3 * o_3 - k_c3 * o_3 ] <= 10.0
  FreightSV_c3_c2:  pi_c2 - pi_c3 - kDash_c3 + 20.0 z_c3_c2 + [ kDash_c3 * o_3 - k_c3 * o_3 ] <= 10.0
  FreightSV_c3_c4:  pi_c4 - pi_c3 - kDash_c3 + 20.0 z_c3_c4 + [ kDash_c3 * o_3 - k_c3 * o_3 ] <= 10.0
  FreightSV_c3_c5:  pi_c5 - pi_c3 - kDash_c3 + 20.0 z_c3_c5 + [ kDash_c3 * o_3 - k_c3 * o_3 ] <= 10.0
  FreightSV_c3_dN:  pi_dN - pi_c3 - kDash_c3 + 20.0 z_c3_dN + [ kDash_c3 * o_3 - k_c3 * o_3 ] <= 10.0
  FreightSV_c4_c1:  pi_c1 - pi_c4 - kDash_c4 + 20.0 z_c4_c1 + [ kDash_c4 * o_4 - k_c4 * o_4 ] <= 10.0
  FreightSV_c4_c2:  pi_c2 - pi_c4 - kDash_c4 + 20.0 z_c4_c2 + [ kDash_c4 * o_4 - k_c4 * o_4 ] <= 10.0
  FreightSV_c4_c3:  pi_c3 - pi_c4 - kDash_c4 + 20.0 z_c4_c3 + [ kDash_c4 * o_4 - k_c4 * o_4 ] <= 10.0
  FreightSV_c4_c5:  pi_c5 - pi_c4 - kDash_c4 + 20.0 z_c4_c5 + [ kDash_c4 * o_4 - k_c4 * o_4 ] <= 10.0
  FreightSV_c4_dN:  pi_dN - pi_c4 - kDash_c4 + 20.0 z_c4_dN + [ kDash_c4 * o_4 - k_c4 * o_4 ] <= 10.0
  FreightSV_c5_c1:  pi_c1 - pi_c5 - kDash_c5 + 20.0 z_c5_c1 + [ kDash_c5 * o_5 - k_c5 * o_5 ] <= 10.0
  FreightSV_c5_c2:  pi_c2 - pi_c5 - kDash_c5 + 20.0 z_c5_c2 + [ kDash_c5 * o_5 - k_c5 * o_5 ] <= 10.0
  FreightSV_c5_c3:  pi_c3 - pi_c5 - kDash_c5 + 20.0 z_c5_c3 + [ kDash_c5 * o_5 - k_c5 * o_5 ] <= 10.0
  FreightSV_c5_c4:  pi_c4 - pi_c5 - kDash_c5 + 20.0 z_c5_c4 + [ kDash_c5 * o_5 - k_c5 * o_5 ] <= 10.0
  FreightSV_c5_dN:  pi_dN - pi_c5 - kDash_c5 + 20.0 z_c5_dN + [ kDash_c5 * o_5 - k_c5 * o_5 ] <= 10.0
  FuelDV_d0_c1:  phi_c1 - phi_d0 + 12.7239 x_d0_c1 <= 12.0
  FuelDV_d0_c2:  phi_c2 - phi_d0 + 13.1507 x_d0_c2 <= 12.0
  FuelDV_d0_c3:  phi_c3 - phi_d0 + 12.9393 x_d0_c3 <= 12.0
  FuelDV_d0_c4:  phi_c4 - phi_d0 + 12.39 x_d0_c4 <= 12.0
  FuelDV_d0_c5:  phi_c5 - phi_d0 + 13.0122 x_d0_c5 <= 12.0
  FuelDV_c1_c2:  phi_c2 - phi_c1 + 13.3393 x_c1_c2 <= 12.0
  FuelDV_c1_c3:  phi_c3 - phi_c1 + 12.5753 x_c1_c3 <= 12.0
  FuelDV_c1_c4:  phi_c4 - phi_c1 + 12.659 x_c1_c4 <= 12.0
  FuelDV_c1_c5:  phi_c5 - phi_c1 + 13.6926 x_c1_c5 <= 12.0
  FuelDV_c1_dN:  phi_dN - phi_c1 + 12.7239 x_c1_dN <= 12.0
  FuelDV_c2_c1:  phi_c1 - phi_c2 + 13.3393 x_c2_c1 <= 12.0
  FuelDV_c2_c3:  phi_c3 - phi_c2 + 12.9098 x_c2_c3 <= 12.0
  FuelDV_c2_c4:  phi_c4 - phi_c2 + 12.8082 x_c2_c4 <= 12.0
  FuelDV_c2_c5:  phi_c5 - phi_c2 + 13.8551 x_c2_c5 <= 12.0
  FuelDV_c2_dN:  phi_dN - phi_c2 + 13.1507 x_c2_dN <= 12.0
  FuelDV_c3_c1:  phi_c1 - phi_c3 + 12.5753 x_c3_c1 <= 12.0
  FuelDV_c3_c2:  phi_c2 - phi_c3 + 12.9098 x_c3_c2 <= 12.0
  FuelDV_c3_c4:  phi_c4 - phi_c3 + 12.6168 x_c3_c4 <= 12.0
  FuelDV_c3_c5:  phi_c5 - phi_c3 + 13.9414 x_c3_c5 <= 12.0
  FuelDV_c3_dN:  phi_dN - phi_c3 + 12.9393 x_c3_dN <= 12.0
  FuelDV_c4_c1:  phi_c1 - phi_c4 + 12.659 x_c4_c1 <= 12.0
  FuelDV_c4_c2:  phi_c2 - phi_c4 + 12.8082 x_c4_c2 <= 12.0
  FuelDV_c4_c3:  phi_c3 - phi_c4 + 12.6168 x_c4_c3 <= 12.0
  FuelDV_c4_c5:  phi_c5 - phi_c4 + 13.3393 x_c4_c5 <= 12.0
  FuelDV_c4_dN:  phi_dN - phi_c4 + 12.39 x_c4_dN <= 12.0
  FuelDV_c5_c1:  phi_c1 - phi_c5 + 13.6926 x_c5_c1 <= 12.0
  FuelDV_c5_c2:  phi_c2 - phi_c5 + 13.8551 x_c5_c2 <= 12.0
  FuelDV_c5_c3:  phi_c3 - phi_c5 + 13.9414 x_c5_c3 <= 12.0
  FuelDV_c5_c4:  phi_c4 - phi_c5 + 13.3393 x_c5_c4 <= 12.0
  FuelDV_c5_dN:  phi_dN - phi_c5 + 13.0122 x_c5_dN <= 12.0
  WorkingTimeD_c1:  tauD_c1 + 8.0 p_1 <= 95.295
  WorkingTimeD_c2:  tauD_c2 + 8.0 p_2 <= 89.7
  WorkingTimeD_c3:  tauD_c3 + 8.0 p_3 <= 91.49
  WorkingTimeD_c4:  tauD_c4 + 8.0 p_4 <= 92.5425
  WorkingTimeD_c5:  tauD_c5 + 8.0 p_5 <= 90.2175
Bounds
0 <= kDash_c1 <= 10.0
0 <= kDash_c2 <= 10.0
0 <= kDash_c3 <= 10.0
0 <= kDash_c4 <= 10.0
0 <= kDash_c5 <= 10.0
0 <= kDash_dN <= 10.0
0 <= k_c1 <= 10.0
0 <= k_c2 <= 10.0
0 <= k_c3 <= 10.0
0 <= k_c4 <= 10.0
0 <= k_c5 <= 10.0
0 <= k_dN <= 10.0
0 <= phi_c1 <= 12.0
0 <= phi_c2 <= 12.0
0 <= phi_c3 <= 12.0
0 <= phi_c4 <= 12.0
0 <= phi_c5 <= 12.0
0 <= phi_d0 <= 12.0
0 <= phi_dN <= 12.0
0 <= pi_c1 <= 50.0
0 <= pi_c2 <= 50.0
0 <= pi_c3 <= 50.0
0 <= pi_c4 <= 50.0
0 <= pi_c5 <= 50.0
0 <= pi_dN <= 50.0
0 <= tauD_c1 <= 100.0
0 <= tauD_c2 <= 100.0
0 <= tauD_c3 <= 100.0
0 <= tauD_c4 <= 100.0
0 <= tauD_c5 <= 100.0
0 <= tauD_d0 <= 100.0
0 <= tauD_dN <= 100.0
0 <= tauS_c1 <= 100.0
0 <= tauS_c2 <= 100.0
0 <= tauS_c3 <= 100.0
0 <= tauS_c4 <= 100.0
0 <= tauS_c5 <= 100.0
0 <= tauS_d0 <= 100.0
0 <= tauS_dN <= 100.0
Generals
  kDash_c1
  kDash_c2
  kDash_c3
  kDash_c4
  kDash_c5
  kDash_dN
  k_c1
  k_c2
  k_c3
  k_c4
  k_c5
  k_dN
  phi_c1
  phi_c2
  phi_c3
  phi_c4
  phi_c5
  phi_d0
  phi_dN
  pi_c1
  pi_c2
  pi_c3
  pi_c4
  pi_c5
  pi_dN
  tauD_c1
  tauD_c2
  tauD_c3
  tauD_c4
  tauD_c5
  tauD_d0
  tauD_dN
  tauS_c1
  tauS_c2
  tauS_c3
  tauS_c4
  tauS_c5
  tauS_d0
  tauS_dN
Binary
  o_1
  o_2
  o_3
  o_4
  o_5
  p_1
  p_2
  p_3
  p_4
  p_5
  x_c1_c2
  x_c1_c3
  x_c1_c4
  x_c1_c5
  x_c1_dN
  x_c2_c1
  x_c2_c3
  x_c2_c4
  x_c2_c5
  x_c2_dN
  x_c3_c1
  x_c3_c2
  x_c3_c4
  x_c3_c5
  x_c3_dN
  x_c4_c1
  x_c4_c2
  x_c4_c3
  x_c4_c5
  x_c4_dN
  x_c5_c1
  x_c5_c2
  x_c5_c3
  x_c5_c4
  x_c5_dN
  x_d0_c1
  x_d0_c2
  x_d0_c3
  x_d0_c4
  x_d0_c5
  z_c1_c2
  z_c1_c3
  z_c1_c4
  z_c1_c5
  z_c1_dN
  z_c2_c1
  z_c2_c3
  z_c2_c4
  z_c2_c5
  z_c2_dN
  z_c3_c1
  z_c3_c2
  z_c3_c4
  z_c3_c5
  z_c3_dN
  z_c4_c1
  z_c4_c2
  z_c4_c3
  z_c4_c5
  z_c4_dN
  z_c5_c1
  z_c5_c2
  z_c5_c3
  z_c5_c4
  z_c5_dN
  z_d0_c1
  z_d0_c2
  z_d0_c3
  z_d0_c4
  z_d0_c5
End
