VRPTWMS/instances/mip/freight/5/N5-C_DV10-C_SV50_F12_7_No_1.log

Gurobi 6.0.4 (win64) logging started 06/13/15 23:06:52

Warning: unknown variable 'kDash_dN' in bounds section
Read LP format model from file C:\MT\repository\VRPTWMS\instances\mip\freight\N5-C_DV10-C_SV50_F12_7_No_1.lp
Reading time = 0.01 seconds
(null): 161 rows, 110 columns, 603 nonzeros
Optimize a model with 161 rows, 110 columns and 603 nonzeros
Model has 180 quadratic constraints
WARNING: Only barrier available for SOCP models
Coefficient statistics:
  Matrix range    [1e+00, 1e+02]
  Objective range [6e+00, 1e+03]
  Bounds range    [1e+00, 1e+02]
  RHS range       [1e+00, 1e+02]
Presolve removed 36 rows and 19 columns
Presolve time: 0.02s
Presolved: 542 rows, 312 columns, 2246 nonzeros
Variable types: 196 continuous, 116 integer (83 binary)
Found heuristic solution: objective 5126.0400000
Optimize a model with 542 rows, 312 columns and 2246 nonzeros
Coefficient statistics:
  Matrix range    [1e+00, 1e+02]
  Objective range [6e+00, 1e+03]
  Bounds range    [1e+00, 1e+02]
  RHS range       [1e+00, 1e+02]
Presolve removed 43 rows and 23 columns
Presolved: 499 rows, 289 columns, 2059 nonzeros


Root relaxation: objective 1.079064e+03, 56 iterations, 0.00 seconds

    Nodes    |    Current Node    |     Objective Bounds      |     Work
 Expl Unexpl |  Obj  Depth IntInf | Incumbent    BestBd   Gap | It/Node Time

     0     0 1079.06363    0   36 5126.04000 1079.06363  78.9%     -    0s
H    0     0                    3108.8400000 1079.06363  65.3%     -    0s
     0     0 1085.55850    0   17 3108.84000 1085.55850  65.1%     -    0s
H    0     0                    3098.8300000 1085.55850  65.0%     -    0s
     0     0 1086.46726    0   31 3098.83000 1086.46726  64.9%     -    0s
     0     0 1086.56126    0   38 3098.83000 1086.56126  64.9%     -    0s
     0     0 1086.57600    0   43 3098.83000 1086.57600  64.9%     -    0s
     0     0 1086.59786    0   44 3098.83000 1086.59786  64.9%     -    0s
     0     0 1086.59786    0   44 3098.83000 1086.59786  64.9%     -    0s
     0     2 1086.59786    0   44 3098.83000 1086.59786  64.9%     -    0s
*   82    53              12    2138.4400000 1097.09000  48.7%  31.5    0s
H   96    51                    2131.1800000 1097.09000  48.5%  29.3    0s
H  135    50                    2125.8000000 1097.95000  48.4%  29.0    0s
H  245    69                    2125.0000000 1120.85000  47.3%  29.4    0s
H  419    13                    2109.3400000 1331.43521  36.9%  25.8    0s

Cutting planes:
  Learned: 1
  Cover: 23
  Implied bound: 25
  Clique: 10
  MIR: 24
  Flow cover: 1
  GUB cover: 2

Explored 482 nodes (11975 simplex iterations) in 0.30 seconds
Thread count was 2 (of 4 available processors)

Optimal solution found (tolerance 1.00e-04)
Best objective 2.109340000000e+03, best bound 2.109340000000e+03, gap 0.0%
k_c1	10.0
k_c2	10.0
k_c3	5.0
k_c4	4.0
k_c5	10.0
k_dN	-0.0
kDash_c1	5.0
kDash_c2	4.0
kDash_c3	-0.0
kDash_c4	-0.0
kDash_c5	9.0
kDash_dN	-0.0
o_1	0.0
o_2	-0.0
o_3	-0.0
o_4	0.0
o_5	-0.0
p_1	-0.0
p_2	0.0
p_3	1.0
p_4	1.0
p_5	0.0
phi_c1	11.0
phi_c2	5.0
phi_c3	10.0
phi_c4	4.0
phi_c5	2.0
phi_d0	12.0
phi_dN	-0.0
pi_c1	4.999999999999929
pi_c2	5.999999999999929
pi_c3	19.99999999999993
pi_c4	9.999999999999929
pi_c5	0.9999999999999307
pi_dN	-0.0
tauD_c1	10.0
tauD_c2	45.0
tauD_c3	15.0
tauD_c4	60.0
tauD_c5	80.00000000000001
tauD_d0	-0.0
tauD_dN	100.0
tauS_c1	1.000000000000008
tauS_c2	1.000000000000008
tauS_c3	20.0
tauS_c4	31.0
tauS_c5	0.0
tauS_d0	-0.0
tauS_dN	76.0
x_c1_c3	1.0
x_c2_c4	1.0
x_c3_c2	1.0
x_c4_c5	1.0
x_c5_dN	1.0
x_d0_c1	1.0
z_c3_c4	1.0
z_c4_dN	0.9999999999999964
z_d0_c3	1.0
